/*********************************************
 * OPL 22.1.1.0 Data
 * Author: 2002n
 * Creation Date: 30-Sep-2024 at 9:12:06 AM
 *********************************************/
g = 20;
r = 20;
f = [[10.0,20.0,30.0,40.0],
[10.0,20.0,30.0,40.0],
[10.0,20.0,30.0,40.0],
[10.0,20.0,30.0,40.0],
[10.0,20.0,30.0,40.0],
[10.0,20.0,30.0,40.0],
[10.0,20.0,30.0,40.0],
[10.0,20.0,30.0,40.0],
[10.0,20.0,30.0,40.0],
[10.0,20.0,30.0,40.0],
[10.0,20.0,30.0,40.0],
[10.0,20.0,30.0,40.0],
[10.0,20.0,30.0,40.0],
[10.0,20.0,30.0,40.0],
[10.0,20.0,30.0,40.0],
[10.0,20.0,30.0,40.0]
];

d = [
    [0, 4, 6, 5, 2, 7, 5, 3, 2, 5, 7, 2, 5, 5, 2, 5],
    [4, 0, 7, 3, 3, 1, 3, 4, 4, 4, 8, 6, 3, 1, 5, 4],
    [6, 7, 0, 6, 4, 3, 5, 5, 4, 5, 6, 2, 7, 5, 4, 6],
    [5, 3, 6, 0, 7, 7, 3, 7, 6, 8, 7, 4, 4, 2, 6, 4],
    [2, 3, 4, 7, 0, 5, 4, 5, 6, 4, 2, 3, 6, 4, 4, 3],
    [7, 1, 3, 7, 5, 0, 5, 3, 1, 9, 3, 4, 3, 3, 3, 5],
    [5, 3, 5, 3, 4, 5, 0, 2, 6, 5, 6, 4, 6, 3, 1, 3],
    [3, 4, 5, 7, 5, 3, 2, 0, 3, 5, 5, 8, 7, 3, 2, 5],
    [2, 4, 4, 6, 6, 1, 6, 3, 0, 4, 2, 5, 1, 7, 6, 5],
    [5, 4, 5, 8, 4, 9, 5, 5, 4, 0, 5, 4, 4, 3, 2, 8],
    [7, 8, 6, 7, 2, 3, 6, 5, 2, 5, 0, 5, 8, 7, 4, 5],
    [2, 6, 2, 4, 3, 4, 4, 8, 5, 4, 5, 0, 5, 2, 6, 6],
    [5, 3, 7, 4, 6, 3, 6, 7, 1, 4, 8, 5, 0, 4, 6, 2],
    [5, 1, 5, 2, 4, 3, 3, 3, 7, 3, 7, 2, 4, 0, 4, 5],
    [2, 5, 4, 6, 4, 3, 1, 2, 6, 2, 4, 6, 6, 4, 0, 8],
    [5, 4, 6, 4, 3, 5, 3, 5, 5, 8, 5, 6, 2, 5, 8, 0]];

S = [[0,5,6,8],
[5,0,7,9],
[6,7,0,10],
[8,9,10,0]];

M = 10000;

V = [480.0,960.0,1440.0,1920.0];
t = 60;

arc = {
  <1, 2, 5>,
  <1, 2, 10>,
  <1, 2, 15>,
  <2, 4, 1>,
  <2, 4, 12>,
  <2, 4, 14>,
  <3, 1, 10>,
  <3, 1, 16>,
  <3, 4, 7>,
  <3, 4, 8>,
  <3, 4, 15>};

barc = {
  <1, 2, 1, 5>,
  <1, 2, 5, 10>,
  <1, 2, 10, 15>,
  <1, 2, 15, 2>,
  <2, 4, 1, 4>,
  <2, 4, 2, 12>,
  <2, 4, 12, 14>,
  <2, 4, 14, 1>,
  <3, 1, 3, 16>,
  <3, 1, 10, 1>,
  <3, 1, 16, 10>,
  <3, 4, 3, 7>,
  <3, 4, 7, 15>,
  <3, 4, 8, 4>,
  <3, 4, 15, 8>
};